
Log for 'C:\Users\SEOHARAM\AppData\Local\Temp\0093e207ce8846ba9bae8a161873e469-pulp.lp' Clone_1 (V22.1.1.0) Thu Oct 26 11:28:33 2023

Tried aggregator 1 time.
LP Presolve eliminated 5 rows and 870480 columns.
All rows and columns eliminated.
Presolve time = 0.28 sec. (331.02 ticks)
Parallel mode: deterministic, using up to 21 threads for concurrent optimization:
 * Starting dual Simplex on 1 thread...
 * Starting primal Simplex on 1 thread...

Log for 'C:\Users\SEOHARAM\AppData\Local\Temp\0093e207ce8846ba9bae8a161873e469-pulp.lp' Clone_1 (V22.1.1.0) Thu Oct 26 11:28:34 2023

Using steepest-edge.

Total time on 21 threads = 0.66 sec. (783.26 ticks)

Dual simplex solved model.


Log for 'C:\Users\SEOHARAM\AppData\Local\Temp\c4cc4c3860e9498788fbceafb1807d9e-pulp.lp' Clone_1 (V22.1.1.0) Thu Oct 26 11:39:28 2023

Tried aggregator 1 time.
LP Presolve eliminated 5 rows and 870480 columns.
All rows and columns eliminated.
Presolve time = 0.28 sec. (331.02 ticks)
Parallel mode: deterministic, using up to 21 threads for concurrent optimization:
 * Starting dual Simplex on 1 thread...
 * Starting primal Simplex on 1 thread...

Log for 'C:\Users\SEOHARAM\AppData\Local\Temp\c4cc4c3860e9498788fbceafb1807d9e-pulp.lp' Clone_1 (V22.1.1.0) Thu Oct 26 11:39:29 2023

Using steepest-edge.

Total time on 21 threads = 0.61 sec. (783.26 ticks)

Dual simplex solved model.

